c read Graph
c width = 4
c time = 6 ms
c width = 1
c time = 12 ms
c width = 1
c time = 4914 ms
s td 46 2 64
b 1 1 35
b 2 2 49
b 3 3 41
b 4 4
b 5 5 36
b 6 5 63
b 7 6 53
b 8 7 44
b 9 8 55
b 10 9
b 11 10
b 12 11
b 13 12 56
b 14 13 19
b 15 14 20
b 16 39 40
b 17 14 40
b 18 16 48
b 19 47 48
b 20 15 47
b 21 15 26
b 22 17
b 23 18
b 24 21
b 25 22
b 26 23
b 27 24
b 28 25
b 29 27 28
b 30 29
b 31 30
b 32 31 32
b 33 33
b 34 34
b 35 37 38
b 36 42
b 37 43
b 38 45
b 39 46
b 40 50
b 41 51 52
b 42 54
b 43 57 58
b 44 59 60
b 45 61 62
b 46 64
1 2
1 3
1 4
1 5
1 7
1 8
1 9
1 10
1 11
1 12
1 13
1 14
1 15
1 18
1 22
1 23
1 24
1 25
1 26
1 27
1 28
1 29
1 30
1 31
1 32
1 33
1 34
1 35
1 36
1 37
1 38
1 39
1 40
1 41
1 42
1 43
1 44
1 45
1 46
5 6
15 17
16 17
18 19
19 20
20 21
